p cnf 21 30
-1 4 5 6 9 10 15 19 0 
-2 20 0 
-3 21 0 
-4 1 5 6 9 10 15 19 0 
-5 1 4 6 9 10 15 19 0 
-6 1 4 5 9 10 15 19 0 
-6 1 4 5 9 10 15 21 0 
-1 4 5 6 9 10 15 21 0 
-6 1 4 5 9 10 15 20 0 
-1 4 5 6 9 10 15 20 0 
-7 19 0 
-8 21 0 
-8 20 0 
-9 1 4 5 6 10 15 19 0 
-10 1 4 5 6 9 15 20 0 
-9 1 4 5 6 10 15 20 0 
-10 1 4 5 6 9 15 21 0 
-9 1 4 5 6 10 15 21 0 
-10 1 4 5 6 9 15 19 0 
-11 12 13 16 19 0 
-12 11 13 16 19 0 
-13 11 12 16 19 0 
-14 19 0 
-2 21 0 
-2 19 0 
-15 1 4 5 6 9 10 19 0 
-16 11 12 13 19 0 
-17 19 0 
-18 21 0 
-3 19 0 
